c ind 10 13 158 160 162 164 166 168 170 172 0
c ind 22 24 241 242 246 247 252 253 26 262 0
c ind 263 277 279 28 281 283 285 287 289 291 0
c ind 30 32 34 36 45 48 5 59 6 60 0
c ind 62 64 66 72 74 76 78 9 0
p cnf 291 975
-1 -2 11 0
-1 2 150 0
-100 -101 60 0
-100 101 103 0
-101 102 0
-101 65 0
-102 87 0
-102 96 0
-103 -104 60 0
-103 104 106 0
-104 105 0
-104 56 0
-105 -13 66 0
-105 -66 13 0
-106 -107 60 0
-106 107 109 0
-107 108 0
-107 65 0
-108 92 0
-108 96 0
-109 -110 60 0
-109 110 111 0
-11 -12 14 0
-11 12 37 0
-110 105 0
-110 81 0
-111 -112 60 0
-111 112 113 0
-112 105 0
-112 86 0
-113 -114 115 0
-113 114 13 0
-114 105 0
-114 91 0
-115 -116 13 0
-115 116 121 0
-116 117 0
-116 77 0
-117 118 0
-117 75 0
-118 119 0
-118 120 0
-119 -13 72 0
-119 -72 13 0
-12 -13 9 0
-12 -9 13 0
-120 -13 74 0
-120 -74 13 0
-121 122 0
-121 127 0
-122 123 0
-122 126 0
-123 124 0
-123 125 0
-124 -59 60 0
-124 -60 59 0
-125 -60 62 0
-125 -62 60 0
-126 -60 64 0
-126 -64 60 0
-127 -60 66 0
-127 -66 60 0
-128 -129 150 0
-128 129 173 0
-129 -42 130 0
-129 42 146 0
-130 -50 60 0
-130 50 131 0
-131 -52 132 0
-131 52 146 0
-132 -55 133 0
-132 55 134 0
-133 -68 13 0
-133 68 60 0
-134 -80 60 0
-134 80 135 0
-135 -85 60 0
-135 85 136 0
-136 -90 60 0
-136 90 137 0
-137 -94 60 0
-137 94 138 0
-138 -98 60 0
-138 98 139 0
-139 -101 60 0
-139 101 140 0
-14 15 0
-14 35 0
-140 -104 60 0
-140 104 141 0
-141 -107 60 0
-141 107 142 0
-142 -110 60 0
-142 110 143 0
-143 -112 60 0
-143 112 144 0
-144 -114 145 0
-144 114 60 0
-145 -116 60 0
-145 116 146 0
-146 127 0
-146 147 0
-147 126 0
-147 148 0
-148 125 0
-148 149 0
-149 -13 59 0
-149 -59 13 0
-15 16 0
-15 33 0
-150 151 0
-150 171 0
-151 152 0
-151 169 0
-152 153 0
-152 167 0
-153 154 0
-153 165 0
-154 155 0
-154 163 0
-155 156 0
-155 161 0
-156 157 0
-156 159 0
-157 -158 22 0
-157 -22 158 0
-159 -160 24 0
-159 -24 160 0
-16 17 0
-16 31 0
-161 -162 26 0
-161 -26 162 0
-163 -164 28 0
-163 -28 164 0
-165 -166 30 0
-165 -30 166 0
-167 -168 32 0
-167 -32 168 0
-169 -170 34 0
-169 -34 170 0
-17 18 0
-17 29 0
-171 -172 36 0
-171 -36 172 0
-173 -174 150 0
-173 174 194 0
-174 -42 175 0
-174 42 190 0
-175 -50 60 0
-175 50 176 0
-176 -52 177 0
-176 52 190 0
-177 -55 60 0
-177 55 178 0
-178 -80 133 0
-178 80 179 0
-179 -85 60 0
-179 85 180 0
-18 19 0
-18 27 0
-180 -90 60 0
-180 90 181 0
-181 -94 60 0
-181 94 182 0
-182 -98 60 0
-182 98 183 0
-183 -101 60 0
-183 101 184 0
-184 -104 60 0
-184 104 185 0
-185 -107 60 0
-185 107 186 0
-186 -110 60 0
-186 110 187 0
-187 -112 60 0
-187 112 188 0
-188 -114 189 0
-188 114 60 0
-189 -116 60 0
-189 116 190 0
-19 20 0
-19 25 0
-190 127 0
-190 191 0
-191 126 0
-191 192 0
-192 124 0
-192 193 0
-193 -13 62 0
-193 -62 13 0
-194 -195 150 0
-194 195 214 0
-195 -42 196 0
-195 42 211 0
-196 -50 60 0
-196 50 197 0
-197 -52 198 0
-197 52 211 0
-198 -55 60 0
-198 55 199 0
-199 -80 60 0
-199 80 200 0
-2 3 7 0
-20 21 0
-20 23 0
-200 -85 133 0
-200 85 201 0
-201 -90 60 0
-201 90 202 0
-202 -94 60 0
-202 94 203 0
-203 -98 60 0
-203 98 204 0
-204 -101 60 0
-204 101 205 0
-205 -104 60 0
-205 104 206 0
-206 -107 60 0
-206 107 207 0
-207 -110 60 0
-207 110 208 0
-208 -112 60 0
-208 112 209 0
-209 -114 210 0
-209 114 60 0
-21 -13 22 0
-21 -22 13 0
-210 -116 60 0
-210 116 211 0
-211 127 0
-211 212 0
-212 126 0
-212 213 0
-213 149 0
-213 193 0
-214 -215 234 0
-214 215 150 0
-215 -42 216 0
-215 42 231 0
-216 -50 60 0
-216 50 217 0
-217 -52 218 0
-217 52 231 0
-218 -55 60 0
-218 55 219 0
-219 -80 60 0
-219 80 220 0
-220 -85 60 0
-220 85 221 0
-221 -90 133 0
-221 90 222 0
-222 -94 60 0
-222 94 223 0
-223 -98 60 0
-223 98 224 0
-224 -101 60 0
-224 101 225 0
-225 -104 60 0
-225 104 226 0
-226 -107 60 0
-226 107 227 0
-227 -110 60 0
-227 110 228 0
-228 -112 60 0
-228 112 229 0
-229 -114 230 0
-229 114 60 0
-23 -13 24 0
-23 -24 13 0
-230 -116 60 0
-230 116 231 0
-231 127 0
-231 232 0
-232 123 0
-232 233 0
-233 -13 64 0
-233 -64 13 0
-234 -235 269 0
-234 235 150 0
-235 236 0
-235 259 0
-236 237 0
-236 249 0
-237 238 0
-237 243 0
-238 -239 60 0
-238 -60 239 0
-239 -240 -60 0
-239 240 60 0
-240 -241 -242 0
-240 241 242 0
-243 -244 60 0
-243 -60 244 0
-244 -245 -248 0
-244 245 248 0
-245 -246 -247 0
-245 246 247 0
-248 241 0
-248 242 0
-249 -250 60 0
-249 -60 250 0
-25 -13 26 0
-25 -26 13 0
-250 -251 -254 0
-250 251 254 0
-251 -252 -253 0
-251 252 253 0
-254 255 258 0
-255 256 257 0
-256 246 0
-256 247 0
-257 247 0
-257 248 0
-258 246 0
-258 248 0
-259 -260 60 0
-259 -60 260 0
-260 -261 -264 0
-260 261 264 0
-261 -262 -263 0
-261 262 263 0
-264 265 268 0
-265 266 267 0
-266 252 0
-266 253 0
-267 253 0
-267 254 0
-268 252 0
-268 254 0
-269 270 0
-269 290 0
-27 -13 28 0
-27 -28 13 0
-270 271 0
-270 288 0
-271 272 0
-271 286 0
-272 273 0
-272 284 0
-273 274 0
-273 282 0
-274 275 0
-274 280 0
-275 276 0
-275 278 0
-276 -22 277 0
-276 -277 22 0
-278 -24 279 0
-278 -279 24 0
-280 -26 281 0
-280 -281 26 0
-282 -28 283 0
-282 -283 28 0
-284 -285 30 0
-284 -30 285 0
-286 -287 32 0
-286 -32 287 0
-288 -289 34 0
-288 -34 289 0
-29 -13 30 0
-29 -30 13 0
-290 -291 36 0
-290 -36 291 0
-3 -4 0
-31 -13 32 0
-31 -32 13 0
-33 -13 34 0
-33 -34 13 0
-35 -13 36 0
-35 -36 13 0
-37 -38 40 0
-37 38 150 0
-38 3 0
-38 39 0
-39 -13 5 0
-39 -5 13 0
-4 -5 6 0
-4 -6 5 0
-40 -41 14 0
-40 41 128 0
-41 -42 49 0
-41 42 121 0
-42 43 46 0
-43 -44 0
-44 -45 6 0
-44 -6 45 0
-46 -47 0
-47 -10 48 0
-47 -48 10 0
-49 -50 13 0
-49 50 51 0
-50 -10 13 0
-50 -13 10 0
-51 -52 54 0
-51 52 121 0
-52 43 0
-52 53 0
-53 -13 6 0
-53 -6 13 0
-54 -55 67 0
-54 55 79 0
-55 56 0
-55 65 0
-56 57 0
-56 63 0
-57 58 0
-57 61 0
-58 -59 60 0
-58 -60 59 0
-60 0
-61 -60 62 0
-61 -62 60 0
-63 -60 64 0
-63 -64 60 0
-65 -60 66 0
-65 -66 60 0
-67 -68 60 0
-67 68 13 0
-68 69 0
-68 77 0
-69 70 0
-69 75 0
-7 -8 0
-70 71 0
-70 73 0
-71 -60 72 0
-71 -72 60 0
-73 -60 74 0
-73 -74 60 0
-75 -60 76 0
-75 -76 60 0
-77 -60 78 0
-77 -78 60 0
-79 -80 67 0
-79 80 84 0
-8 -10 9 0
-8 -9 10 0
-80 65 0
-80 81 0
-81 63 0
-81 82 0
-82 61 0
-82 83 0
-83 -13 59 0
-83 -59 13 0
-84 -85 67 0
-84 85 89 0
-85 65 0
-85 86 0
-86 63 0
-86 87 0
-87 58 0
-87 88 0
-88 -13 62 0
-88 -62 13 0
-89 -90 67 0
-89 90 93 0
-90 65 0
-90 91 0
-91 63 0
-91 92 0
-92 83 0
-92 88 0
-93 -94 67 0
-93 94 97 0
-94 65 0
-94 95 0
-95 57 0
-95 96 0
-96 -13 64 0
-96 -64 13 0
-97 -98 60 0
-97 98 100 0
-98 65 0
-98 99 0
-99 82 0
-99 96 0
1 -11 -150 0
1 -2 -11 0
1 0
1 2 -150 0
100 -101 -60 0
100 -60 -103 0
100 101 -103 0
101 -102 -65 0
102 -87 -96 0
103 -104 -60 0
103 -60 -106 0
103 104 -106 0
104 -56 -105 0
105 -66 -13 0
105 66 13 0
106 -107 -60 0
106 -60 -109 0
106 107 -109 0
107 -108 -65 0
108 -92 -96 0
109 -110 -60 0
109 -60 -111 0
109 110 -111 0
11 -12 -14 0
11 -14 -37 0
11 12 -37 0
110 -81 -105 0
111 -112 -60 0
111 -60 -113 0
111 112 -113 0
112 -86 -105 0
113 -114 -115 0
113 -115 -13 0
113 114 -13 0
114 -91 -105 0
115 -116 -13 0
115 -13 -121 0
115 116 -121 0
116 -117 -77 0
117 -118 -75 0
118 -119 -120 0
119 -72 -13 0
119 72 13 0
12 -9 -13 0
12 9 13 0
120 -74 -13 0
120 74 13 0
121 -122 -127 0
122 -123 -126 0
123 -124 -125 0
124 -60 -59 0
124 60 59 0
125 -60 -62 0
125 60 62 0
126 -60 -64 0
126 60 64 0
127 -60 -66 0
127 60 66 0
128 -129 -150 0
128 -150 -173 0
128 129 -173 0
129 -130 -146 0
129 -42 -130 0
129 42 -146 0
13 0
130 -50 -60 0
130 -60 -131 0
130 50 -131 0
131 -132 -146 0
131 -52 -132 0
131 52 -146 0
132 -133 -134 0
132 -55 -133 0
132 55 -134 0
133 -13 -60 0
133 -68 -13 0
133 68 -60 0
134 -60 -135 0
134 -80 -60 0
134 80 -135 0
135 -60 -136 0
135 -85 -60 0
135 85 -136 0
136 -60 -137 0
136 -90 -60 0
136 90 -137 0
137 -60 -138 0
137 -94 -60 0
137 94 -138 0
138 -60 -139 0
138 -98 -60 0
138 98 -139 0
139 -101 -60 0
139 -60 -140 0
139 101 -140 0
14 -15 -35 0
140 -104 -60 0
140 -60 -141 0
140 104 -141 0
141 -107 -60 0
141 -60 -142 0
141 107 -142 0
142 -110 -60 0
142 -60 -143 0
142 110 -143 0
143 -112 -60 0
143 -60 -144 0
143 112 -144 0
144 -114 -145 0
144 -145 -60 0
144 114 -60 0
145 -116 -60 0
145 -60 -146 0
145 116 -146 0
146 -147 -127 0
147 -148 -126 0
148 -149 -125 0
149 -13 -59 0
149 13 59 0
15 -16 -33 0
150 -151 -171 0
151 -152 -169 0
152 -153 -167 0
153 -154 -165 0
154 -155 -163 0
155 -156 -161 0
156 -157 -159 0
157 -22 -158 0
157 22 158 0
159 -24 -160 0
159 24 160 0
16 -17 -31 0
161 -26 -162 0
161 26 162 0
163 -28 -164 0
163 28 164 0
165 -30 -166 0
165 30 166 0
167 -32 -168 0
167 32 168 0
169 -34 -170 0
169 34 170 0
17 -18 -29 0
171 -36 -172 0
171 36 172 0
173 -150 -194 0
173 -174 -150 0
173 174 -194 0
174 -175 -190 0
174 -42 -175 0
174 42 -190 0
175 -50 -60 0
175 -60 -176 0
175 50 -176 0
176 -177 -190 0
176 -52 -177 0
176 52 -190 0
177 -55 -60 0
177 -60 -178 0
177 55 -178 0
178 -133 -179 0
178 -80 -133 0
178 80 -179 0
179 -60 -180 0
179 -85 -60 0
179 85 -180 0
18 -19 -27 0
180 -60 -181 0
180 -90 -60 0
180 90 -181 0
181 -60 -182 0
181 -94 -60 0
181 94 -182 0
182 -60 -183 0
182 -98 -60 0
182 98 -183 0
183 -101 -60 0
183 -60 -184 0
183 101 -184 0
184 -104 -60 0
184 -60 -185 0
184 104 -185 0
185 -107 -60 0
185 -60 -186 0
185 107 -186 0
186 -110 -60 0
186 -60 -187 0
186 110 -187 0
187 -112 -60 0
187 -60 -188 0
187 112 -188 0
188 -114 -189 0
188 -189 -60 0
188 114 -60 0
189 -116 -60 0
189 -60 -190 0
189 116 -190 0
19 -20 -25 0
190 -191 -127 0
191 -192 -126 0
192 -124 -193 0
193 -13 -62 0
193 13 62 0
194 -150 -214 0
194 -195 -150 0
194 195 -214 0
195 -196 -211 0
195 -42 -196 0
195 42 -211 0
196 -50 -60 0
196 -60 -197 0
196 50 -197 0
197 -198 -211 0
197 -52 -198 0
197 52 -211 0
198 -55 -60 0
198 -60 -199 0
198 55 -199 0
199 -60 -200 0
199 -80 -60 0
199 80 -200 0
2 -3 0
2 -7 0
20 -21 -23 0
200 -133 -201 0
200 -85 -133 0
200 85 -201 0
201 -60 -202 0
201 -90 -60 0
201 90 -202 0
202 -60 -203 0
202 -94 -60 0
202 94 -203 0
203 -60 -204 0
203 -98 -60 0
203 98 -204 0
204 -101 -60 0
204 -60 -205 0
204 101 -205 0
205 -104 -60 0
205 -60 -206 0
205 104 -206 0
206 -107 -60 0
206 -60 -207 0
206 107 -207 0
207 -110 -60 0
207 -60 -208 0
207 110 -208 0
208 -112 -60 0
208 -60 -209 0
208 112 -209 0
209 -114 -210 0
209 -210 -60 0
209 114 -60 0
21 -22 -13 0
21 22 13 0
210 -116 -60 0
210 -60 -211 0
210 116 -211 0
211 -212 -127 0
212 -213 -126 0
213 -149 -193 0
214 -215 -234 0
214 -234 -150 0
214 215 -150 0
215 -216 -231 0
215 -42 -216 0
215 42 -231 0
216 -50 -60 0
216 -60 -217 0
216 50 -217 0
217 -218 -231 0
217 -52 -218 0
217 52 -231 0
218 -55 -60 0
218 -60 -219 0
218 55 -219 0
219 -60 -220 0
219 -80 -60 0
219 80 -220 0
220 -60 -221 0
220 -85 -60 0
220 85 -221 0
221 -133 -222 0
221 -90 -133 0
221 90 -222 0
222 -60 -223 0
222 -94 -60 0
222 94 -223 0
223 -60 -224 0
223 -98 -60 0
223 98 -224 0
224 -101 -60 0
224 -60 -225 0
224 101 -225 0
225 -104 -60 0
225 -60 -226 0
225 104 -226 0
226 -107 -60 0
226 -60 -227 0
226 107 -227 0
227 -110 -60 0
227 -60 -228 0
227 110 -228 0
228 -112 -60 0
228 -60 -229 0
228 112 -229 0
229 -114 -230 0
229 -230 -60 0
229 114 -60 0
23 -24 -13 0
23 24 13 0
230 -116 -60 0
230 -60 -231 0
230 116 -231 0
231 -232 -127 0
232 -123 -233 0
233 -13 -64 0
233 13 64 0
234 -235 -269 0
234 -269 -150 0
234 235 -150 0
235 -236 -259 0
236 -237 -249 0
237 -238 -243 0
238 -239 -60 0
238 239 60 0
239 -240 60 0
239 -60 240 0
240 -241 242 0
240 -242 241 0
243 -244 -60 0
243 244 60 0
244 -245 248 0
244 -248 245 0
245 -246 247 0
245 -247 246 0
248 -241 -242 0
249 -250 -60 0
249 250 60 0
25 -26 -13 0
25 26 13 0
250 -251 254 0
250 -254 251 0
251 -252 253 0
251 -253 252 0
254 -255 0
254 -258 0
255 -256 0
255 -257 0
256 -246 -247 0
257 -247 -248 0
258 -246 -248 0
259 -260 -60 0
259 260 60 0
260 -261 264 0
260 -264 261 0
261 -262 263 0
261 -263 262 0
264 -265 0
264 -268 0
265 -266 0
265 -267 0
266 -252 -253 0
267 -253 -254 0
268 -252 -254 0
269 -270 -290 0
27 -28 -13 0
27 28 13 0
270 -271 -288 0
271 -272 -286 0
272 -273 -284 0
273 -274 -282 0
274 -275 -280 0
275 -276 -278 0
276 -22 -277 0
276 22 277 0
278 -24 -279 0
278 24 279 0
280 -26 -281 0
280 26 281 0
282 -28 -283 0
282 28 283 0
284 -30 -285 0
284 30 285 0
286 -32 -287 0
286 32 287 0
288 -34 -289 0
288 34 289 0
29 -30 -13 0
29 30 13 0
290 -36 -291 0
290 36 291 0
3 4 0
31 -32 -13 0
31 32 13 0
33 -34 -13 0
33 34 13 0
35 -36 -13 0
35 36 13 0
37 -38 -40 0
37 -40 -150 0
37 38 -150 0
38 -3 -39 0
39 -5 -13 0
39 5 13 0
4 -5 -6 0
4 5 6 0
40 -14 -128 0
40 -41 -14 0
40 41 -128 0
41 -42 -49 0
41 -49 -121 0
41 42 -121 0
42 -43 0
42 -46 0
43 44 0
44 -6 -45 0
44 6 45 0
46 47 0
47 -10 -48 0
47 10 48 0
49 -13 -51 0
49 -50 -13 0
49 50 -51 0
50 -10 -13 0
50 10 13 0
51 -52 -54 0
51 -54 -121 0
51 52 -121 0
52 -43 -53 0
53 -6 -13 0
53 6 13 0
54 -55 -67 0
54 -67 -79 0
54 55 -79 0
55 -56 -65 0
56 -57 -63 0
57 -58 -61 0
58 -59 -60 0
58 59 60 0
61 -62 -60 0
61 62 60 0
63 -64 -60 0
63 64 60 0
65 -66 -60 0
65 66 60 0
67 -60 -13 0
67 -68 -60 0
67 68 -13 0
68 -69 -77 0
69 -70 -75 0
7 8 0
70 -71 -73 0
71 -72 -60 0
71 72 60 0
73 -74 -60 0
73 74 60 0
75 -76 -60 0
75 76 60 0
77 -78 -60 0
77 78 60 0
79 -67 -84 0
79 -80 -67 0
79 80 -84 0
8 -9 -10 0
8 9 10 0
80 -81 -65 0
81 -82 -63 0
82 -83 -61 0
83 -59 -13 0
83 59 13 0
84 -67 -89 0
84 -85 -67 0
84 85 -89 0
85 -86 -65 0
86 -87 -63 0
87 -58 -88 0
88 -62 -13 0
88 62 13 0
89 -67 -93 0
89 -90 -67 0
89 90 -93 0
90 -91 -65 0
91 -92 -63 0
92 -83 -88 0
93 -67 -97 0
93 -94 -67 0
93 94 -97 0
94 -95 -65 0
95 -57 -96 0
96 -64 -13 0
96 64 13 0
97 -60 -100 0
97 -98 -60 0
97 98 -100 0
98 -99 -65 0
99 -82 -96 0
